NAME : morphed22-2-15
COMMENT : Generated using the function morphInstances from the R-package netgen (Bossek,2015) - Number of clusters: 2 Alpha: 0.5
TYPE : TSP
DIMENSION : 22
EDGE_WEIGHT_TYPE : EUC_2D
NODE_COORD_SECTION
1 68.7052605907 26.2227331504
2 11.3946714904 52.1789916116
3 96.9600225793 44.9307495325
4 41.1637833652 80.8018891101
5 51.7779079721 6.2860762277
6 97.3991103929 17.9734300043
7 50.3421609845 95.6071644882
8 16.081003618 72.6711224787
9 47.4565110514 69.0482469072
10 90.4714424292 25.3528458791
11 5.9050148068 67.4731090052
12 71.8388911068 10.7867648538
13 32.3131680995 74.5672508002
14 49.4166406455 80.2991180254
15 90.675569082 10.2243198487
16 91.0195220005 40.3942676357
17 29.4463597706 62.1961919594
18 97.5949146372 53.2126122611
19 13.9185266699 91.828550445
20 81.9467907446 38.1342689483
21 52.9950126453 94.0187245817
22 79.8111916604 26.5567072676
EOF
